(set-logic QF_UFLIA)
(declare-fun v_1_1_0 () Bool)
(declare-fun v_1_2_0 () Bool)
(declare-fun v_1_3_0 () Bool)
(declare-fun v_1_4_0 () Bool)
(declare-fun v_2_1_0 () Bool)
(declare-fun v_2_2_0 () Bool)
(declare-fun v_2_2_1 () Bool)
(declare-fun v_2_2_2 () Bool)
(declare-fun v_2_2_3 () Bool)
(declare-fun v_2_2_4 () Bool)
(declare-fun v_2_2_5 () Bool)
(declare-fun v_2_2_6 () Bool)
(declare-fun v_2_2_7 () Bool)
(declare-fun v_2_2_8 () Bool)
(declare-fun v_2_2_9 () Bool)
(declare-fun v_2_3_0 () Bool)
(declare-fun v_2_4_0 () Bool)
(declare-fun v_3_1_0 () Bool)
(declare-fun v_3_2_0 () Bool)
(declare-fun v_4_2_0 () Bool)
(declare-fun v_4_3_0 () Bool)
(declare-fun v_4_4_0 () Bool)
(declare-fun v_1_1_1 () Bool)
(declare-fun v_1_2_1 () Bool)
(declare-fun v_1_3_1 () Bool)
(declare-fun v_1_4_1 () Bool)
(declare-fun v_2_1_1 () Bool)
(declare-fun v_2_3_1 () Bool)
(declare-fun v_2_4_1 () Bool)
(declare-fun v_3_1_1 () Bool)
(declare-fun v_3_2_1 () Bool)
(declare-fun v_4_2_1 () Bool)
(declare-fun v_4_3_1 () Bool)
(declare-fun v_4_4_1 () Bool)
(declare-fun v_1_1_2 () Bool)
(declare-fun v_1_2_2 () Bool)
(declare-fun v_1_3_2 () Bool)
(declare-fun v_1_4_2 () Bool)
(declare-fun v_2_1_2 () Bool)
(declare-fun v_2_3_2 () Bool)
(declare-fun v_2_4_2 () Bool)
(declare-fun v_3_1_2 () Bool)
(declare-fun v_3_2_2 () Bool)
(declare-fun v_4_2_2 () Bool)
(declare-fun v_4_3_2 () Bool)
(declare-fun v_4_4_2 () Bool)
(declare-fun v_1_1_3 () Bool)
(declare-fun v_1_2_3 () Bool)
(declare-fun v_1_3_3 () Bool)
(declare-fun v_1_4_3 () Bool)
(declare-fun v_2_1_3 () Bool)
(declare-fun v_2_3_3 () Bool)
(declare-fun v_2_4_3 () Bool)
(declare-fun v_3_1_3 () Bool)
(declare-fun v_3_2_3 () Bool)
(declare-fun v_4_2_3 () Bool)
(declare-fun v_4_3_3 () Bool)
(declare-fun v_4_4_3 () Bool)
(declare-fun v_1_1_4 () Bool)
(declare-fun v_1_2_4 () Bool)
(declare-fun v_1_3_4 () Bool)
(declare-fun v_1_4_4 () Bool)
(declare-fun v_2_1_4 () Bool)
(declare-fun v_2_3_4 () Bool)
(declare-fun v_2_4_4 () Bool)
(declare-fun v_3_1_4 () Bool)
(declare-fun v_3_2_4 () Bool)
(declare-fun v_4_2_4 () Bool)
(declare-fun v_4_3_4 () Bool)
(declare-fun v_4_4_4 () Bool)
(declare-fun v_1_1_5 () Bool)
(declare-fun v_1_2_5 () Bool)
(declare-fun v_1_3_5 () Bool)
(declare-fun v_1_4_5 () Bool)
(declare-fun v_2_1_5 () Bool)
(declare-fun v_2_3_5 () Bool)
(declare-fun v_2_4_5 () Bool)
(declare-fun v_3_1_5 () Bool)
(declare-fun v_3_2_5 () Bool)
(declare-fun v_4_2_5 () Bool)
(declare-fun v_4_3_5 () Bool)
(declare-fun v_4_4_5 () Bool)
(declare-fun v_1_1_6 () Bool)
(declare-fun v_1_2_6 () Bool)
(declare-fun v_1_3_6 () Bool)
(declare-fun v_1_4_6 () Bool)
(declare-fun v_2_1_6 () Bool)
(declare-fun v_2_3_6 () Bool)
(declare-fun v_2_4_6 () Bool)
(declare-fun v_3_1_6 () Bool)
(declare-fun v_3_2_6 () Bool)
(declare-fun v_4_2_6 () Bool)
(declare-fun v_4_3_6 () Bool)
(declare-fun v_4_4_6 () Bool)
(declare-fun v_1_1_7 () Bool)
(declare-fun v_1_2_7 () Bool)
(declare-fun v_1_3_7 () Bool)
(declare-fun v_1_4_7 () Bool)
(declare-fun v_2_1_7 () Bool)
(declare-fun v_2_3_7 () Bool)
(declare-fun v_2_4_7 () Bool)
(declare-fun v_3_1_7 () Bool)
(declare-fun v_3_2_7 () Bool)
(declare-fun v_4_2_7 () Bool)
(declare-fun v_4_3_7 () Bool)
(declare-fun v_4_4_7 () Bool)
(declare-fun v_1_1_8 () Bool)
(declare-fun v_1_2_8 () Bool)
(declare-fun v_1_3_8 () Bool)
(declare-fun v_1_4_8 () Bool)
(declare-fun v_2_1_8 () Bool)
(declare-fun v_2_3_8 () Bool)
(declare-fun v_2_4_8 () Bool)
(declare-fun v_3_1_8 () Bool)
(declare-fun v_3_2_8 () Bool)
(declare-fun v_4_2_8 () Bool)
(declare-fun v_4_3_8 () Bool)
(declare-fun v_4_4_8 () Bool)
(declare-fun v_1_1_9 () Bool)
(declare-fun v_1_2_9 () Bool)
(declare-fun v_1_3_9 () Bool)
(declare-fun v_1_4_9 () Bool)
(declare-fun v_2_1_9 () Bool)
(declare-fun v_2_3_9 () Bool)
(declare-fun v_2_4_9 () Bool)
(declare-fun v_3_1_9 () Bool)
(declare-fun v_3_2_9 () Bool)
(declare-fun v_4_2_9 () Bool)
(declare-fun v_4_3_9 () Bool)
(declare-fun v_4_4_9 () Bool)
(assert (or v_1_1_0 (not v_1_2_0) (not v_1_3_0) (not v_1_4_0) (not v_2_1_0) (not v_2_2_0) (not v_2_3_0) (not v_2_4_0) (not v_3_1_0) (not v_3_2_0) (not v_3_3_0) (not v_3_4_0) (not v_4_1_0) (not v_4_2_0) (not v_4_3_0) (not v_4_4_0) ))
(assert (or v_4_4_0 v_4_4_1 v_4_4_2 v_4_4_3 v_4_4_4 v_4_4_5 v_4_4_6 v_4_4_7 v_4_4_8 v_4_4_9 ))
(assert (=> v_1_1_0 (or v_2_1_1 v_1_2_1 )))
(assert (=> v_1_2_0 (or v_1_1_1 v_1_3_1 )))
(assert (=> v_1_3_0 (or v_2_3_1 v_1_2_1 v_1_4_1 )))
(assert (=> v_1_4_0 (or v_2_4_1 v_1_3_1 )))
(assert (=> v_2_1_0 (or v_1_1_1 v_3_1_1 )))
(assert (=> v_2_3_0 (or v_1_3_1 v_2_4_1 )))
(assert (=> v_2_4_0 (or v_1_4_1 v_2_3_1 )))
(assert (=> v_3_1_0 (or v_2_1_1 v_3_2_1 )))
(assert (=> v_3_2_0 (or v_4_2_1 v_3_1_1 )))
(assert (=> v_4_2_0 (or v_3_2_1 v_4_3_1 )))
(assert (=> v_4_3_0 (or v_4_2_1 v_4_4_1 )))
(assert (=> v_4_4_0 (or v_4_3_1 )))
(assert (=> v_1_1_1 (or v_2_1_2 v_1_2_2 )))
(assert (=> v_1_2_1 (or v_1_1_2 v_1_3_2 )))
(assert (=> v_1_3_1 (or v_2_3_2 v_1_2_2 v_1_4_2 )))
(assert (=> v_1_4_1 (or v_2_4_2 v_1_3_2 )))
(assert (=> v_2_1_1 (or v_1_1_2 v_3_1_2 )))
(assert (=> v_2_3_1 (or v_1_3_2 v_2_4_2 )))
(assert (=> v_2_4_1 (or v_1_4_2 v_2_3_2 )))
(assert (=> v_3_1_1 (or v_2_1_2 v_3_2_2 )))
(assert (=> v_3_2_1 (or v_4_2_2 v_3_1_2 )))
(assert (=> v_4_2_1 (or v_3_2_2 v_4_3_2 )))
(assert (=> v_4_3_1 (or v_4_2_2 v_4_4_2 )))
(assert (=> v_4_4_1 (or v_4_3_2 )))
(assert (=> v_1_1_2 (or v_2_1_3 v_1_2_3 )))
(assert (=> v_1_2_2 (or v_1_1_3 v_1_3_3 )))
(assert (=> v_1_3_2 (or v_2_3_3 v_1_2_3 v_1_4_3 )))
(assert (=> v_1_4_2 (or v_2_4_3 v_1_3_3 )))
(assert (=> v_2_1_2 (or v_1_1_3 v_3_1_3 )))
(assert (=> v_2_3_2 (or v_1_3_3 v_2_4_3 )))
(assert (=> v_2_4_2 (or v_1_4_3 v_2_3_3 )))
(assert (=> v_3_1_2 (or v_2_1_3 v_3_2_3 )))
(assert (=> v_3_2_2 (or v_4_2_3 v_3_1_3 )))
(assert (=> v_4_2_2 (or v_3_2_3 v_4_3_3 )))
(assert (=> v_4_3_2 (or v_4_2_3 v_4_4_3 )))
(assert (=> v_4_4_2 (or v_4_3_3 )))
(assert (=> v_1_1_3 (or v_2_1_4 v_1_2_4 )))
(assert (=> v_1_2_3 (or v_1_1_4 v_1_3_4 )))
(assert (=> v_1_3_3 (or v_2_3_4 v_1_2_4 v_1_4_4 )))
(assert (=> v_1_4_3 (or v_2_4_4 v_1_3_4 )))
(assert (=> v_2_1_3 (or v_1_1_4 v_3_1_4 )))
(assert (=> v_2_3_3 (or v_1_3_4 v_2_4_4 )))
(assert (=> v_2_4_3 (or v_1_4_4 v_2_3_4 )))
(assert (=> v_3_1_3 (or v_2_1_4 v_3_2_4 )))
(assert (=> v_3_2_3 (or v_4_2_4 v_3_1_4 )))
(assert (=> v_4_2_3 (or v_3_2_4 v_4_3_4 )))
(assert (=> v_4_3_3 (or v_4_2_4 v_4_4_4 )))
(assert (=> v_4_4_3 (or v_4_3_4 )))
(assert (=> v_1_1_4 (or v_2_1_5 v_1_2_5 )))
(assert (=> v_1_2_4 (or v_1_1_5 v_1_3_5 )))
(assert (=> v_1_3_4 (or v_2_3_5 v_1_2_5 v_1_4_5 )))
(assert (=> v_1_4_4 (or v_2_4_5 v_1_3_5 )))
(assert (=> v_2_1_4 (or v_1_1_5 v_3_1_5 )))
(assert (=> v_2_3_4 (or v_1_3_5 v_2_4_5 )))
(assert (=> v_2_4_4 (or v_1_4_5 v_2_3_5 )))
(assert (=> v_3_1_4 (or v_2_1_5 v_3_2_5 )))
(assert (=> v_3_2_4 (or v_4_2_5 v_3_1_5 )))
(assert (=> v_4_2_4 (or v_3_2_5 v_4_3_5 )))
(assert (=> v_4_3_4 (or v_4_2_5 v_4_4_5 )))
(assert (=> v_4_4_4 (or v_4_3_5 )))
(assert (=> v_1_1_5 (or v_2_1_6 v_1_2_6 )))
(assert (=> v_1_2_5 (or v_1_1_6 v_1_3_6 )))
(assert (=> v_1_3_5 (or v_2_3_6 v_1_2_6 v_1_4_6 )))
(assert (=> v_1_4_5 (or v_2_4_6 v_1_3_6 )))
(assert (=> v_2_1_5 (or v_1_1_6 v_3_1_6 )))
(assert (=> v_2_3_5 (or v_1_3_6 v_2_4_6 )))
(assert (=> v_2_4_5 (or v_1_4_6 v_2_3_6 )))
(assert (=> v_3_1_5 (or v_2_1_6 v_3_2_6 )))
(assert (=> v_3_2_5 (or v_4_2_6 v_3_1_6 )))
(assert (=> v_4_2_5 (or v_3_2_6 v_4_3_6 )))
(assert (=> v_4_3_5 (or v_4_2_6 v_4_4_6 )))
(assert (=> v_4_4_5 (or v_4_3_6 )))
(assert (=> v_1_1_6 (or v_2_1_7 v_1_2_7 )))
(assert (=> v_1_2_6 (or v_1_1_7 v_1_3_7 )))
(assert (=> v_1_3_6 (or v_2_3_7 v_1_2_7 v_1_4_7 )))
(assert (=> v_1_4_6 (or v_2_4_7 v_1_3_7 )))
(assert (=> v_2_1_6 (or v_1_1_7 v_3_1_7 )))
(assert (=> v_2_3_6 (or v_1_3_7 v_2_4_7 )))
(assert (=> v_2_4_6 (or v_1_4_7 v_2_3_7 )))
(assert (=> v_3_1_6 (or v_2_1_7 v_3_2_7 )))
(assert (=> v_3_2_6 (or v_4_2_7 v_3_1_7 )))
(assert (=> v_4_2_6 (or v_3_2_7 v_4_3_7 )))
(assert (=> v_4_3_6 (or v_4_2_7 v_4_4_7 )))
(assert (=> v_4_4_6 (or v_4_3_7 )))
(assert (=> v_1_1_7 (or v_2_1_8 v_1_2_8 )))
(assert (=> v_1_2_7 (or v_1_1_8 v_1_3_8 )))
(assert (=> v_1_3_7 (or v_2_3_8 v_1_2_8 v_1_4_8 )))
(assert (=> v_1_4_7 (or v_2_4_8 v_1_3_8 )))
(assert (=> v_2_1_7 (or v_1_1_8 v_3_1_8 )))
(assert (=> v_2_3_7 (or v_1_3_8 v_2_4_8 )))
(assert (=> v_2_4_7 (or v_1_4_8 v_2_3_8 )))
(assert (=> v_3_1_7 (or v_2_1_8 v_3_2_8 )))
(assert (=> v_3_2_7 (or v_4_2_8 v_3_1_8 )))
(assert (=> v_4_2_7 (or v_3_2_8 v_4_3_8 )))
(assert (=> v_4_3_7 (or v_4_2_8 v_4_4_8 )))
(assert (=> v_4_4_7 (or v_4_3_8 )))
(assert (=> v_1_1_8 (or v_2_1_9 v_1_2_9 )))
(assert (=> v_1_2_8 (or v_1_1_9 v_1_3_9 )))
(assert (=> v_1_3_8 (or v_2_3_9 v_1_2_9 v_1_4_9 )))
(assert (=> v_1_4_8 (or v_2_4_9 v_1_3_9 )))
(assert (=> v_2_1_8 (or v_1_1_9 v_3_1_9 )))
(assert (=> v_2_3_8 (or v_1_3_9 v_2_4_9 )))
(assert (=> v_2_4_8 (or v_1_4_9 v_2_3_9 )))
(assert (=> v_3_1_8 (or v_2_1_9 v_3_2_9 )))
(assert (=> v_3_2_8 (or v_4_2_9 v_3_1_9 )))
(assert (=> v_4_2_8 (or v_3_2_9 v_4_3_9 )))
(assert (=> v_4_3_8 (or v_4_2_9 v_4_4_9 )))
(assert (=> v_4_4_8 (or v_4_3_9 )))
(assert (=> v_1_1_0 (not v_2_2_0 v_3_3_0 v_3_4_0 v_4_1_0 )))
(assert (=> v_1_2_0 (not v_2_2_0 v_3_3_0 v_3_4_0 v_4_1_0 )))
(assert (=> v_1_3_0 (not v_2_2_0 v_3_3_0 v_3_4_0 v_4_1_0 )))
(assert (=> v_1_4_0 (not v_2_2_0 v_3_3_0 v_3_4_0 v_4_1_0 )))
(assert (=> v_2_1_0 (not v_2_2_0 v_3_3_0 v_3_4_0 v_4_1_0 )))
(assert (=> v_2_3_0 (not v_2_2_0 v_3_3_0 v_3_4_0 v_4_1_0 )))
(assert (=> v_2_4_0 (not v_2_2_0 v_3_3_0 v_3_4_0 v_4_1_0 )))
(assert (=> v_3_1_0 (not v_2_2_0 v_3_3_0 v_3_4_0 v_4_1_0 )))
(assert (=> v_3_2_0 (not v_2_2_0 v_3_3_0 v_3_4_0 v_4_1_0 )))
(assert (=> v_4_2_0 (not v_2_2_0 v_3_3_0 v_3_4_0 v_4_1_0 )))
(assert (=> v_4_3_0 (not v_2_2_0 v_3_3_0 v_3_4_0 v_4_1_0 )))
(assert (=> v_4_4_0 (not v_2_2_0 v_3_3_0 v_3_4_0 v_4_1_0 )))
(assert (=> v_1_1_1 (not v_2_2_1 v_3_3_1 v_3_4_1 v_4_1_1 )))
(assert (=> v_1_2_1 (not v_2_2_1 v_3_3_1 v_3_4_1 v_4_1_1 )))
(assert (=> v_1_3_1 (not v_2_2_1 v_3_3_1 v_3_4_1 v_4_1_1 )))
(assert (=> v_1_4_1 (not v_2_2_1 v_3_3_1 v_3_4_1 v_4_1_1 )))
(assert (=> v_2_1_1 (not v_2_2_1 v_3_3_1 v_3_4_1 v_4_1_1 )))
(assert (=> v_2_3_1 (not v_2_2_1 v_3_3_1 v_3_4_1 v_4_1_1 )))
(assert (=> v_2_4_1 (not v_2_2_1 v_3_3_1 v_3_4_1 v_4_1_1 )))
(assert (=> v_3_1_1 (not v_2_2_1 v_3_3_1 v_3_4_1 v_4_1_1 )))
(assert (=> v_3_2_1 (not v_2_2_1 v_3_3_1 v_3_4_1 v_4_1_1 )))
(assert (=> v_4_2_1 (not v_2_2_1 v_3_3_1 v_3_4_1 v_4_1_1 )))
(assert (=> v_4_3_1 (not v_2_2_1 v_3_3_1 v_3_4_1 v_4_1_1 )))
(assert (=> v_4_4_1 (not v_2_2_1 v_3_3_1 v_3_4_1 v_4_1_1 )))
(assert (=> v_1_1_2 (not v_2_2_2 v_3_3_2 v_3_4_2 v_4_1_2 )))
(assert (=> v_1_2_2 (not v_2_2_2 v_3_3_2 v_3_4_2 v_4_1_2 )))
(assert (=> v_1_3_2 (not v_2_2_2 v_3_3_2 v_3_4_2 v_4_1_2 )))
(assert (=> v_1_4_2 (not v_2_2_2 v_3_3_2 v_3_4_2 v_4_1_2 )))
(assert (=> v_2_1_2 (not v_2_2_2 v_3_3_2 v_3_4_2 v_4_1_2 )))
(assert (=> v_2_3_2 (not v_2_2_2 v_3_3_2 v_3_4_2 v_4_1_2 )))
(assert (=> v_2_4_2 (not v_2_2_2 v_3_3_2 v_3_4_2 v_4_1_2 )))
(assert (=> v_3_1_2 (not v_2_2_2 v_3_3_2 v_3_4_2 v_4_1_2 )))
(assert (=> v_3_2_2 (not v_2_2_2 v_3_3_2 v_3_4_2 v_4_1_2 )))
(assert (=> v_4_2_2 (not v_2_2_2 v_3_3_2 v_3_4_2 v_4_1_2 )))
(assert (=> v_4_3_2 (not v_2_2_2 v_3_3_2 v_3_4_2 v_4_1_2 )))
(assert (=> v_4_4_2 (not v_2_2_2 v_3_3_2 v_3_4_2 v_4_1_2 )))
(assert (=> v_1_1_3 (not v_2_2_3 v_3_3_3 v_3_4_3 v_4_1_3 )))
(assert (=> v_1_2_3 (not v_2_2_3 v_3_3_3 v_3_4_3 v_4_1_3 )))
(assert (=> v_1_3_3 (not v_2_2_3 v_3_3_3 v_3_4_3 v_4_1_3 )))
(assert (=> v_1_4_3 (not v_2_2_3 v_3_3_3 v_3_4_3 v_4_1_3 )))
(assert (=> v_2_1_3 (not v_2_2_3 v_3_3_3 v_3_4_3 v_4_1_3 )))
(assert (=> v_2_3_3 (not v_2_2_3 v_3_3_3 v_3_4_3 v_4_1_3 )))
(assert (=> v_2_4_3 (not v_2_2_3 v_3_3_3 v_3_4_3 v_4_1_3 )))
(assert (=> v_3_1_3 (not v_2_2_3 v_3_3_3 v_3_4_3 v_4_1_3 )))
(assert (=> v_3_2_3 (not v_2_2_3 v_3_3_3 v_3_4_3 v_4_1_3 )))
(assert (=> v_4_2_3 (not v_2_2_3 v_3_3_3 v_3_4_3 v_4_1_3 )))
(assert (=> v_4_3_3 (not v_2_2_3 v_3_3_3 v_3_4_3 v_4_1_3 )))
(assert (=> v_4_4_3 (not v_2_2_3 v_3_3_3 v_3_4_3 v_4_1_3 )))
(assert (=> v_1_1_4 (not v_2_2_4 v_3_3_4 v_3_4_4 v_4_1_4 )))
(assert (=> v_1_2_4 (not v_2_2_4 v_3_3_4 v_3_4_4 v_4_1_4 )))
(assert (=> v_1_3_4 (not v_2_2_4 v_3_3_4 v_3_4_4 v_4_1_4 )))
(assert (=> v_1_4_4 (not v_2_2_4 v_3_3_4 v_3_4_4 v_4_1_4 )))
(assert (=> v_2_1_4 (not v_2_2_4 v_3_3_4 v_3_4_4 v_4_1_4 )))
(assert (=> v_2_3_4 (not v_2_2_4 v_3_3_4 v_3_4_4 v_4_1_4 )))
(assert (=> v_2_4_4 (not v_2_2_4 v_3_3_4 v_3_4_4 v_4_1_4 )))
(assert (=> v_3_1_4 (not v_2_2_4 v_3_3_4 v_3_4_4 v_4_1_4 )))
(assert (=> v_3_2_4 (not v_2_2_4 v_3_3_4 v_3_4_4 v_4_1_4 )))
(assert (=> v_4_2_4 (not v_2_2_4 v_3_3_4 v_3_4_4 v_4_1_4 )))
(assert (=> v_4_3_4 (not v_2_2_4 v_3_3_4 v_3_4_4 v_4_1_4 )))
(assert (=> v_4_4_4 (not v_2_2_4 v_3_3_4 v_3_4_4 v_4_1_4 )))
(assert (=> v_1_1_5 (not v_2_2_5 v_3_3_5 v_3_4_5 v_4_1_5 )))
(assert (=> v_1_2_5 (not v_2_2_5 v_3_3_5 v_3_4_5 v_4_1_5 )))
(assert (=> v_1_3_5 (not v_2_2_5 v_3_3_5 v_3_4_5 v_4_1_5 )))
(assert (=> v_1_4_5 (not v_2_2_5 v_3_3_5 v_3_4_5 v_4_1_5 )))
(assert (=> v_2_1_5 (not v_2_2_5 v_3_3_5 v_3_4_5 v_4_1_5 )))
(assert (=> v_2_3_5 (not v_2_2_5 v_3_3_5 v_3_4_5 v_4_1_5 )))
(assert (=> v_2_4_5 (not v_2_2_5 v_3_3_5 v_3_4_5 v_4_1_5 )))
(assert (=> v_3_1_5 (not v_2_2_5 v_3_3_5 v_3_4_5 v_4_1_5 )))
(assert (=> v_3_2_5 (not v_2_2_5 v_3_3_5 v_3_4_5 v_4_1_5 )))
(assert (=> v_4_2_5 (not v_2_2_5 v_3_3_5 v_3_4_5 v_4_1_5 )))
(assert (=> v_4_3_5 (not v_2_2_5 v_3_3_5 v_3_4_5 v_4_1_5 )))
(assert (=> v_4_4_5 (not v_2_2_5 v_3_3_5 v_3_4_5 v_4_1_5 )))
(assert (=> v_1_1_6 (not v_2_2_6 v_3_3_6 v_3_4_6 v_4_1_6 )))
(assert (=> v_1_2_6 (not v_2_2_6 v_3_3_6 v_3_4_6 v_4_1_6 )))
(assert (=> v_1_3_6 (not v_2_2_6 v_3_3_6 v_3_4_6 v_4_1_6 )))
(assert (=> v_1_4_6 (not v_2_2_6 v_3_3_6 v_3_4_6 v_4_1_6 )))
(assert (=> v_2_1_6 (not v_2_2_6 v_3_3_6 v_3_4_6 v_4_1_6 )))
(assert (=> v_2_3_6 (not v_2_2_6 v_3_3_6 v_3_4_6 v_4_1_6 )))
(assert (=> v_2_4_6 (not v_2_2_6 v_3_3_6 v_3_4_6 v_4_1_6 )))
(assert (=> v_3_1_6 (not v_2_2_6 v_3_3_6 v_3_4_6 v_4_1_6 )))
(assert (=> v_3_2_6 (not v_2_2_6 v_3_3_6 v_3_4_6 v_4_1_6 )))
(assert (=> v_4_2_6 (not v_2_2_6 v_3_3_6 v_3_4_6 v_4_1_6 )))
(assert (=> v_4_3_6 (not v_2_2_6 v_3_3_6 v_3_4_6 v_4_1_6 )))
(assert (=> v_4_4_6 (not v_2_2_6 v_3_3_6 v_3_4_6 v_4_1_6 )))
(assert (=> v_1_1_7 (not v_2_2_7 v_3_3_7 v_3_4_7 v_4_1_7 )))
(assert (=> v_1_2_7 (not v_2_2_7 v_3_3_7 v_3_4_7 v_4_1_7 )))
(assert (=> v_1_3_7 (not v_2_2_7 v_3_3_7 v_3_4_7 v_4_1_7 )))
(assert (=> v_1_4_7 (not v_2_2_7 v_3_3_7 v_3_4_7 v_4_1_7 )))
(assert (=> v_2_1_7 (not v_2_2_7 v_3_3_7 v_3_4_7 v_4_1_7 )))
(assert (=> v_2_3_7 (not v_2_2_7 v_3_3_7 v_3_4_7 v_4_1_7 )))
(assert (=> v_2_4_7 (not v_2_2_7 v_3_3_7 v_3_4_7 v_4_1_7 )))
(assert (=> v_3_1_7 (not v_2_2_7 v_3_3_7 v_3_4_7 v_4_1_7 )))
(assert (=> v_3_2_7 (not v_2_2_7 v_3_3_7 v_3_4_7 v_4_1_7 )))
(assert (=> v_4_2_7 (not v_2_2_7 v_3_3_7 v_3_4_7 v_4_1_7 )))
(assert (=> v_4_3_7 (not v_2_2_7 v_3_3_7 v_3_4_7 v_4_1_7 )))
(assert (=> v_4_4_7 (not v_2_2_7 v_3_3_7 v_3_4_7 v_4_1_7 )))
(assert (=> v_1_1_8 (not v_2_2_8 v_3_3_8 v_3_4_8 v_4_1_8 )))
(assert (=> v_1_2_8 (not v_2_2_8 v_3_3_8 v_3_4_8 v_4_1_8 )))
(assert (=> v_1_3_8 (not v_2_2_8 v_3_3_8 v_3_4_8 v_4_1_8 )))
(assert (=> v_1_4_8 (not v_2_2_8 v_3_3_8 v_3_4_8 v_4_1_8 )))
(assert (=> v_2_1_8 (not v_2_2_8 v_3_3_8 v_3_4_8 v_4_1_8 )))
(assert (=> v_2_3_8 (not v_2_2_8 v_3_3_8 v_3_4_8 v_4_1_8 )))
(assert (=> v_2_4_8 (not v_2_2_8 v_3_3_8 v_3_4_8 v_4_1_8 )))
(assert (=> v_3_1_8 (not v_2_2_8 v_3_3_8 v_3_4_8 v_4_1_8 )))
(assert (=> v_3_2_8 (not v_2_2_8 v_3_3_8 v_3_4_8 v_4_1_8 )))
(assert (=> v_4_2_8 (not v_2_2_8 v_3_3_8 v_3_4_8 v_4_1_8 )))
(assert (=> v_4_3_8 (not v_2_2_8 v_3_3_8 v_3_4_8 v_4_1_8 )))
(assert (=> v_4_4_8 (not v_2_2_8 v_3_3_8 v_3_4_8 v_4_1_8 )))
(assert (=> v_1_1_9 (not v_2_2_9 v_3_3_9 v_3_4_9 v_4_1_9 )))
(assert (=> v_1_2_9 (not v_2_2_9 v_3_3_9 v_3_4_9 v_4_1_9 )))
(assert (=> v_1_3_9 (not v_2_2_9 v_3_3_9 v_3_4_9 v_4_1_9 )))
(assert (=> v_1_4_9 (not v_2_2_9 v_3_3_9 v_3_4_9 v_4_1_9 )))
(assert (=> v_2_1_9 (not v_2_2_9 v_3_3_9 v_3_4_9 v_4_1_9 )))
(assert (=> v_2_3_9 (not v_2_2_9 v_3_3_9 v_3_4_9 v_4_1_9 )))
(assert (=> v_2_4_9 (not v_2_2_9 v_3_3_9 v_3_4_9 v_4_1_9 )))
(assert (=> v_3_1_9 (not v_2_2_9 v_3_3_9 v_3_4_9 v_4_1_9 )))
(assert (=> v_3_2_9 (not v_2_2_9 v_3_3_9 v_3_4_9 v_4_1_9 )))
(assert (=> v_4_2_9 (not v_2_2_9 v_3_3_9 v_3_4_9 v_4_1_9 )))
(assert (=> v_4_3_9 (not v_2_2_9 v_3_3_9 v_3_4_9 v_4_1_9 )))
(assert (=> v_4_4_9 (not v_2_2_9 v_3_3_9 v_3_4_9 v_4_1_9 )))
(check-sat)
(get-model)
